qbf_easy_train/easy_5223_UNSAT.qdimacs
p cnf 34 89
a 8 26 19 0
e 1 2 3 4 5 6 7 9 10 11 12 13 14 15 16 17 18 20 21 22 23 24 25 27 28 29 30 31 32 33 34 0
3 -1 0
3 2 0
1 -2 -3 0
-5 1 0
-5 4 0
-1 -4 5 0
6 -5 0
6 5 0
3 6 -7 0
-3 -6 -7 0
3 -6 7 0
-3 6 7 0
-9 -8 0
-9 -2 0
8 2 9 0
-10 -9 0
-10 2 0
9 -2 10 0
-7 -10 -11 0
7 10 -11 0
-7 10 11 0
7 -10 11 0
-13 12 0
-13 9 0
-12 -9 13 0
14 -15 0
-14 -15 0
2 -16 0
-2 -16 0
16 2 -17 0
-16 -2 -17 0
16 -2 17 0
-16 2 17 0
-18 15 0
-18 -17 0
-15 17 18 0
-13 -18 -19 0
13 18 -19 0
-13 18 19 0
13 -18 19 0
21 -20 0
21 1 0
20 -1 -21 0
-22 -1 0
-22 -21 0
1 21 22 0
23 -19 0
23 -22 0
19 22 -23 0
-25 24 0
-25 -1 0
-24 1 25 0
26 23 0
26 25 0
-23 -25 -26 0
-27 11 0
-27 -26 0
-11 26 27 0
-28 9 0
-28 14 0
-9 -14 28 0
-24 29 0
24 29 0
14 29 -30 0
-14 -29 -30 0
14 -29 30 0
-14 29 30 0
31 28 0
31 30 0
-28 -30 -31 0
32 -20 0
32 -21 0
20 21 -32 0
31 -32 -33 0
-31 32 -33 0
31 32 33 0
-31 -32 33 0
34 27 0
34 -33 0
-27 33 -34 0
34 -12 10 -19 11 -2 0
-12 -30 -27 9 0
-10 -22 -15 0
18 4 11 15 23 22 27 -8 0
-3 -15 34 -29 -22 -33 0
-10 18 22 -20 0
-15 -4 -2 -3 -34 0
-3 -16 5 17 21 10 2 0
34 0
