sat_easy_train/easy_5223_UNSAT.dimacs
p cnf 131 441
2 3 -4 0
-2 -3 -4 0
2 -3 4 0
-2 3 4 0
-6 4 0
-6 -5 0
-4 5 6 0
-7 -1 0
-7 -6 0
1 6 7 0
9 8 0
9 -5 0
-8 5 -9 0
11 -9 0
11 10 0
9 -10 -11 0
13 11 0
13 -12 0
-11 12 -13 0
14 -15 -16 0
-14 15 -16 0
14 15 16 0
-14 -15 16 0
13 -16 -17 0
-13 16 -17 0
13 16 17 0
-13 -16 17 0
-20 -18 0
-20 19 0
18 -19 20 0
21 17 0
21 -20 0
-17 20 -21 0
-22 8 0
-22 3 0
-8 -3 22 0
-6 -3 -24 0
6 3 -24 0
-6 3 24 0
6 -3 24 0
25 23 0
25 -24 0
-23 24 -25 0
26 -25 0
26 -8 0
25 8 -26 0
-27 -3 0
-27 15 0
3 -15 27 0
-28 -20 0
-28 27 0
20 -27 28 0
-29 -18 0
-29 28 0
18 -28 29 0
30 26 0
30 29 0
-26 -29 -30 0
22 -30 -31 0
-22 30 -31 0
22 30 31 0
-22 -30 31 0
-21 -31 -32 0
21 31 -32 0
-21 31 32 0
21 -31 32 0
-5 23 -33 0
5 -23 -33 0
-5 -23 33 0
5 23 33 0
34 33 0
34 -15 0
-33 15 -34 0
35 10 0
35 34 0
-10 -34 -35 0
37 28 0
37 -36 0
-28 36 -37 0
38 37 0
38 25 0
-37 -25 -38 0
-39 35 0
-39 38 0
-35 -38 39 0
40 4 0
40 18 0
-4 -18 -40 0
12 -40 -41 0
-12 40 -41 0
12 40 41 0
-12 -40 41 0
42 -14 0
42 -10 0
14 10 -42 0
44 43 0
44 -18 0
-43 18 -44 0
-45 27 0
-45 1 0
-27 -1 45 0
44 45 -46 0
-44 -45 -46 0
44 -45 46 0
-44 45 46 0
42 46 -47 0
-42 -46 -47 0
42 -46 47 0
-42 46 47 0
48 12 0
48 -24 0
-12 24 -48 0
49 48 0
49 -16 0
-48 16 -49 0
-50 -47 0
-50 -49 0
47 49 50 0
41 -50 -51 0
-41 50 -51 0
41 50 51 0
-41 -50 51 0
-52 -39 0
-52 51 0
39 -51 52 0
53 32 0
53 -52 0
-32 52 -53 0
18 44 -55 0
-18 -44 -55 0
18 -44 55 0
-18 44 55 0
56 54 0
56 55 0
-54 -55 -56 0
-57 20 0
-57 44 0
-20 -44 57 0
58 57 0
58 15 0
-57 -15 -58 0
-59 -56 0
-59 58 0
56 -58 59 0
-59 -56 -60 0
59 56 -60 0
-59 56 60 0
59 -56 60 0
61 1 0
61 -5 0
-1 5 -61 0
62 -61 0
62 37 0
61 -37 -62 0
-63 -60 0
-63 62 0
60 -62 63 0
64 53 0
64 -63 0
-53 63 -64 0
-65 -7 0
-65 64 0
7 -64 65 0
66 -54 0
66 25 0
54 -25 -66 0
-67 -66 0
-67 46 0
66 -46 67 0
23 56 -68 0
-23 -56 -68 0
23 -56 68 0
-23 56 68 0
69 -5 0
69 -11 0
5 11 -69 0
70 -68 0
70 -69 0
68 69 -70 0
71 -67 0
71 -70 0
67 70 -71 0
72 -65 0
72 71 0
65 -71 -72 0
-73 -19 0
-73 -42 0
19 42 73 0
-74 -73 0
-74 57 0
73 -57 74 0
-75 2 0
-75 -24 0
-2 24 75 0
75 -45 -76 0
-75 45 -76 0
75 45 76 0
-75 -45 76 0
77 -74 0
77 -76 0
74 76 -77 0
-3 -9 -79 0
3 9 -79 0
-3 9 79 0
3 -9 79 0
-78 -79 -80 0
78 79 -80 0
-78 79 80 0
78 -79 80 0
81 55 0
81 12 0
-55 -12 -81 0
61 -33 -82 0
-61 33 -82 0
61 33 82 0
-61 -33 82 0
83 -81 0
83 82 0
81 -82 -83 0
80 -83 -84 0
-80 83 -84 0
80 83 84 0
-80 -83 84 0
85 77 0
85 84 0
-77 -84 -85 0
72 85 -86 0
-72 -85 -86 0
72 -85 86 0
-72 85 86 0
87 -44 0
87 -2 0
44 2 -87 0
88 37 0
88 56 0
-37 -56 -88 0
89 -87 0
89 88 0
87 -88 -89 0
-90 -42 0
-90 -10 0
42 10 90 0
54 -90 -91 0
-54 90 -91 0
54 90 91 0
-54 -90 91 0
-33 28 -92 0
33 -28 -92 0
-33 -28 92 0
33 28 92 0
-91 92 -93 0
91 -92 -93 0
-91 -92 93 0
91 92 93 0
-5 94 0
5 94 0
95 -33 0
95 94 0
33 -94 -95 0
93 -95 -96 0
-93 95 -96 0
93 95 96 0
-93 -95 96 0
97 -56 0
97 -92 0
56 92 -97 0
-45 97 -98 0
45 -97 -98 0
-45 -97 98 0
45 97 98 0
99 46 0
99 98 0
-46 -98 -99 0
96 -99 -100 0
-96 99 -100 0
96 99 100 0
-96 -99 100 0
-101 89 0
-101 100 0
-89 -100 101 0
102 -66 0
102 -11 0
66 11 -102 0
-37 27 -103 0
37 -27 -103 0
-37 -27 103 0
37 27 103 0
104 102 0
104 -103 0
-102 103 -104 0
105 -101 0
105 104 0
101 -104 -105 0
-106 86 0
-106 -105 0
-86 105 106 0
2 -3 -107 0
-2 3 -107 0
2 3 107 0
-2 -3 107 0
-108 -73 0
-108 107 0
73 -107 108 0
-109 33 0
-109 1 0
-33 -1 109 0
-110 -109 0
-110 -109 0
109 110 0
-16 18 -111 0
16 -18 -111 0
-16 -18 111 0
16 18 111 0
-112 -36 0
-112 15 0
36 -15 112 0
-111 -112 -113 0
111 112 -113 0
-111 112 113 0
111 -112 113 0
-43 36 -114 0
43 -36 -114 0
-43 -36 114 0
43 36 114 0
114 6 -115 0
-114 -6 -115 0
114 -6 115 0
-114 6 115 0
116 114 0
116 -115 0
-114 115 -116 0
117 114 0
117 116 0
-114 -116 -117 0
28 92 -118 0
-28 -92 -118 0
28 -92 118 0
-28 92 118 0
-119 117 0
-119 -118 0
-117 118 119 0
120 -92 0
120 -119 0
92 119 -120 0
-121 -14 0
-121 24 0
14 -24 121 0
-5 19 -122 0
5 -19 -122 0
-5 -19 122 0
5 19 122 0
-123 121 0
-123 122 0
-121 -122 123 0
-124 -120 0
-124 123 0
120 -123 124 0
-125 6 0
-125 -43 0
-6 43 125 0
-125 -45 -126 0
125 45 -126 0
-125 45 126 0
125 -45 126 0
124 126 -127 0
-124 -126 -127 0
124 -126 127 0
-124 126 127 0
128 113 0
128 -127 0
-113 127 -128 0
-110 128 -129 0
110 -128 -129 0
-110 -128 129 0
110 128 129 0
108 129 -130 0
-108 -129 -130 0
108 -129 130 0
-108 129 130 0
-106 130 -131 0
106 -130 -131 0
-106 -130 131 0
106 130 131 0
-115 -58 -110 0
119 -84 34 0
109 67 -124 43 0
86 56 -33 0
-89 -19 128 0
-104 80 -89 -38 0
46 -62 0
-130 37 110 74 0
130 -37 0
-82 -53 84 31 -5 0
-20 -79 99 0
-30 -90 47 0
36 -68 98 -8 0
-117 2 -19 0
-80 -96 26 0
58 30 0
112 -67 -76 -22 25 31 0
-19 -6 -87 0
47 96 50 -24 -3 0
129 109 -124 9 121 0
-129 45 0
-38 120 70 -130 0
58 -86 -71 -47 0
-106 47 -108 -27 56 -40 0
-41 -75 -95 7 -22 -122 0
-93 82 0
-82 105 -73 0
-18 39 -19 103 -109 127 0
-120 -118 23 0
-45 -42 -36 34 70 106 0
77 -16 -12 -82 -80 90 0
93 -30 89 -82 -43 85 0
73 -109 -98 40 -64 0
-102 -129 -62 -83 0
-96 -124 16 -87 45 108 0
51 20 123 -109 42 90 0
-15 -26 0
-62 -70 98 -91 -64 0
6 91 -12 102 -30 0
-43 93 0
131 29 0
-93 86 118 -69 -96 123 0
-124 117 -101 0
-47 -118 -25 -126 67 0
-91 -16 0
-42 5 0
-16 -28 0
-11 -35 128 20 -115 0
47 -117 0
91 85 -65 -37 0
79 7 41 0
15 58 105 -36 0
-35 76 8 54 0
-78 55 119 -99 93 77 0
-129 -127 -62 0
-44 -57 13 -131 -59 0
-106 105 -33 97 0
131 0
